c Generated map
c Size: 13 * 13, weights in range: 1 to 10, walls: True, with ratio 0.1
c dim 3 of 4
c
p sp 169 252
c graph contains 169 nodes and 252 arcs
c
a 3 16 2
a 16 3 2
a 3 4 1
a 4 3 1
a 4 17 8
a 17 4 8
a 4 5 7
a 5 4 7
a 5 18 7
a 18 5 7
a 5 6 3
a 6 5 3
a 6 19 6
a 19 6 6
a 8 9 2
a 9 8 2
a 9 22 5
a 22 9 5
a 9 10 8
a 10 9 8
a 10 23 7
a 23 10 7
a 10 11 8
a 11 10 8
a 11 24 6
a 24 11 6
a 11 12 2
a 12 11 2
a 12 25 3
a 25 12 3
a 12 13 2
a 13 12 2
a 13 26 8
a 26 13 8
a 15 28 2
a 28 15 2
a 15 16 6
a 16 15 6
a 16 29 8
a 29 16 8
a 16 17 1
a 17 16 1
a 17 18 6
a 18 17 6
a 18 31 9
a 31 18 9
a 18 19 2
a 19 18 2
a 19 32 3
a 32 19 3
a 19 20 9
a 20 19 9
a 20 33 2
a 33 20 2
a 22 35 3
a 35 22 3
a 22 23 7
a 23 22 7
a 23 36 6
a 36 23 6
a 23 24 6
a 24 23 6
a 24 37 9
a 37 24 9
a 24 25 3
a 25 24 3
a 25 38 3
a 38 25 3
a 25 26 2
a 26 25 2
a 26 39 1
a 39 26 1
a 27 40 5
a 40 27 5
a 27 28 8
a 28 27 8
a 28 41 9
a 41 28 9
a 28 29 8
a 29 28 8
a 29 42 3
a 42 29 3
a 31 44 5
a 44 31 5
a 31 32 5
a 32 31 5
a 32 45 3
a 45 32 3
a 32 33 10
a 33 32 10
a 33 46 8
a 46 33 8
a 33 34 7
a 34 33 7
a 34 47 8
a 47 34 8
a 34 35 3
a 35 34 3
a 35 48 3
a 48 35 3
a 35 36 7
a 36 35 7
a 36 49 8
a 49 36 8
a 36 37 6
a 37 36 6
a 37 50 1
a 50 37 1
a 37 38 10
a 38 37 10
a 38 51 2
a 51 38 2
a 38 39 10
a 39 38 10
a 39 52 4
a 52 39 4
a 40 53 9
a 53 40 9
a 40 41 1
a 41 40 1
a 41 54 5
a 54 41 5
a 41 42 10
a 42 41 10
a 42 55 10
a 55 42 10
a 42 43 5
a 43 42 5
a 43 56 2
a 56 43 2
a 43 44 8
a 44 43 8
a 44 57 1
a 57 44 1
a 44 45 6
a 45 44 6
a 45 58 10
a 58 45 10
a 45 46 10
a 46 45 10
a 46 59 2
a 59 46 2
a 46 47 2
a 47 46 2
a 47 60 6
a 60 47 6
a 47 48 3
a 48 47 3
a 48 61 1
a 61 48 1
a 48 49 3
a 49 48 3
a 49 62 10
a 62 49 10
a 49 50 6
a 50 49 6
a 50 63 6
a 63 50 6
a 50 51 7
a 51 50 7
a 51 64 9
a 64 51 9
a 51 52 7
a 52 51 7
a 52 65 9
a 65 52 9
a 53 66 1
a 66 53 1
a 53 54 6
a 54 53 6
a 54 67 1
a 67 54 1
a 54 55 6
a 55 54 6
a 55 68 10
a 68 55 10
a 55 56 6
a 56 55 6
a 56 69 3
a 69 56 3
a 56 57 10
a 57 56 10
a 57 70 3
a 70 57 3
a 57 58 6
a 58 57 6
a 58 59 9
a 59 58 9
a 59 72 7
a 72 59 7
a 59 60 3
a 60 59 3
a 60 73 3
a 73 60 3
a 60 61 5
a 61 60 5
a 61 74 2
a 74 61 2
a 61 62 8
a 62 61 8
a 62 75 5
a 75 62 5
a 62 63 6
a 63 62 6
a 63 76 9
a 76 63 9
a 63 64 9
a 64 63 9
a 64 77 6
a 77 64 6
a 64 65 4
a 65 64 4
a 65 78 7
a 78 65 7
a 66 67 9
a 67 66 9
a 67 80 4
a 80 67 4
a 67 68 7
a 68 67 7
a 68 81 9
a 81 68 9
a 68 69 7
a 69 68 7
a 69 82 3
a 82 69 3
a 69 70 10
a 70 69 10
a 70 83 10
a 83 70 10
a 72 85 4
a 85 72 4
a 72 73 6
a 73 72 6
a 73 86 1
a 86 73 1
a 73 74 9
a 74 73 9
a 74 87 2
a 87 74 2
a 74 75 10
a 75 74 10
a 75 88 2
a 88 75 2
a 75 76 6
a 76 75 6
a 76 89 3
a 89 76 3
a 76 77 1
a 77 76 1
a 77 90 4
a 90 77 4
a 77 78 5
a 78 77 5
a 78 91 6
a 91 78 6
a 80 93 9
a 93 80 9
a 80 81 4
a 81 80 4
a 81 94 9
a 94 81 9
a 81 82 6
a 82 81 6
a 82 95 3
a 95 82 3
a 82 83 5
a 83 82 5
a 83 96 8
a 96 83 8
a 83 84 9
a 84 83 9
a 84 97 6
a 97 84 6
a 84 85 9
a 85 84 9
a 85 86 10
a 86 85 10
a 86 99 1
a 99 86 1
a 86 87 4
a 87 86 4
a 87 100 10
a 100 87 10
a 87 88 7
a 88 87 7
a 88 101 9
a 101 88 9
a 88 89 4
a 89 88 4
a 89 102 1
a 102 89 1
a 89 90 9
a 90 89 9
a 90 103 9
a 103 90 9
a 90 91 2
a 91 90 2
a 92 93 6
a 93 92 6
a 93 106 5
a 106 93 5
a 93 94 5
a 94 93 5
a 94 107 7
a 107 94 7
a 94 95 6
a 95 94 6
a 95 108 4
a 108 95 4
a 95 96 8
a 96 95 8
a 96 109 9
a 109 96 9
a 96 97 10
a 97 96 10
a 97 110 5
a 110 97 5
a 99 112 5
a 112 99 5
a 99 100 8
a 100 99 8
a 100 113 9
a 113 100 9
a 100 101 3
a 101 100 3
a 101 114 3
a 114 101 3
a 101 102 5
a 102 101 5
a 102 115 2
a 115 102 2
a 102 103 4
a 103 102 4
a 103 116 9
a 116 103 9
a 106 119 8
a 119 106 8
a 106 107 4
a 107 106 4
a 107 120 4
a 120 107 4
a 107 108 10
a 108 107 10
a 108 109 9
a 109 108 9
a 109 110 1
a 110 109 1
a 110 123 10
a 123 110 10
a 110 111 4
a 111 110 4
a 111 124 2
a 124 111 2
a 111 112 10
a 112 111 10
a 112 125 6
a 125 112 6
a 112 113 1
a 113 112 1
a 113 126 9
a 126 113 9
a 113 114 10
a 114 113 10
a 114 127 10
a 127 114 10
a 114 115 5
a 115 114 5
a 115 116 9
a 116 115 9
a 116 129 5
a 129 116 5
a 116 117 8
a 117 116 8
a 117 130 1
a 130 117 1
a 118 131 2
a 131 118 2
a 118 119 10
a 119 118 10
a 119 120 5
a 120 119 5
a 120 133 6
a 133 120 6
a 123 136 3
a 136 123 3
a 123 124 4
a 124 123 4
a 124 137 5
a 137 124 5
a 124 125 8
a 125 124 8
a 125 138 5
a 138 125 5
a 125 126 5
a 126 125 5
a 126 139 7
a 139 126 7
a 126 127 6
a 127 126 6
a 127 140 6
a 140 127 6
a 129 142 10
a 142 129 10
a 129 130 6
a 130 129 6
a 130 143 9
a 143 130 9
a 131 144 10
a 144 131 10
a 133 146 1
a 146 133 1
a 133 134 7
a 134 133 7
a 134 135 2
a 135 134 2
a 135 148 5
a 148 135 5
a 135 136 3
a 136 135 3
a 136 149 9
a 149 136 9
a 136 137 8
a 137 136 8
a 137 150 9
a 150 137 9
a 137 138 6
a 138 137 6
a 138 151 9
a 151 138 9
a 138 139 4
a 139 138 4
a 139 152 8
a 152 139 8
a 139 140 10
a 140 139 10
a 140 153 3
a 153 140 3
a 140 141 3
a 141 140 3
a 141 154 1
a 154 141 1
a 141 142 7
a 142 141 7
a 142 143 3
a 143 142 3
a 143 156 4
a 156 143 4
a 144 157 7
a 157 144 7
a 144 145 4
a 145 144 4
a 145 158 2
a 158 145 2
a 145 146 1
a 146 145 1
a 146 159 8
a 159 146 8
a 148 161 7
a 161 148 7
a 148 149 4
a 149 148 4
a 149 162 9
a 162 149 9
a 149 150 10
a 150 149 10
a 150 163 7
a 163 150 7
a 150 151 4
a 151 150 4
a 151 152 5
a 152 151 5
a 152 165 1
a 165 152 1
a 152 153 2
a 153 152 2
a 153 166 1
a 166 153 1
a 153 154 4
a 154 153 4
a 154 167 8
a 167 154 8
a 156 169 4
a 169 156 4
a 157 158 5
a 158 157 5
a 158 159 3
a 159 158 3
a 159 160 10
a 160 159 10
a 160 161 5
a 161 160 5
a 161 162 10
a 162 161 10
a 162 163 2
a 163 162 2
a 165 166 8
a 166 165 8
a 166 167 7
a 167 166 7
a 167 168 8
a 168 167 8
a 168 169 8
a 169 168 8
